NAME : 10C1k.0.2522585.tour
COMMENT : Length = 2522585
COMMENT : Found by LKH [Keld Helsgaun] Sat Jun 22 18:34:43 2013
TYPE : TOUR
DIMENSION : 10
TOUR_SECTION
40
964
922
264
711
941
428
618
450
999
-1
EOF
